400
200 200
1 140 833
2 140 483
3 140 511
4 140 167
5 139 674
6 139 24
7 139 474
8 138 602
9 138 412
10 138 719
11 138 953
12 138 397
13 137 552
14 137 575
15 136 428
16 136 160
17 136 22
18 136 916
19 136 335
20 135 464
21 135 372
22 135 727
23 135 266
24 134 178
25 134 553
26 134 139
27 134 218
28 134 844
29 134 50
30 133 533
31 133 746
32 132 243
33 132 616
34 132 58
35 131 440
36 131 629
37 131 759
38 129 389
39 129 786
40 129 57
41 129 362
42 128 160
43 128 381
44 128 902
45 127 887
46 127 979
47 127 696
48 127 197
49 126 833
50 125 56
51 125 159
52 124 650
53 124 323
54 124 164
55 124 965
56 124 258
57 124 488
58 123 497
59 123 723
60 123 828
61 123 958
62 123 836
63 122 84
64 122 294
65 122 379
66 121 988
67 120 887
68 120 570
69 120 830
70 119 527
71 119 347
72 119 964
73 119 980
74 118 222
75 118 738
76 118 367
77 118 408
78 117 810
79 117 441
80 117 495
81 117 657
82 117 958
83 116 190
84 116 3
85 115 844
86 115 947
87 115 868
88 115 500
89 115 374
90 114 933
91 114 541
92 114 876
93 114 656
94 114 19
95 114 884
96 113 612
97 113 606
98 113 197
99 113 328
100 112 749
101 112 946
102 112 235
103 111 489
104 111 933
105 111 109
106 111 99
107 111 655
108 111 715
109 110 612
110 110 907
111 109 572
112 109 922
113 109 30
114 108 642
115 108 886
116 108 334
117 108 85
118 108 328
119 108 649
120 108 351
121 107 835
122 107 106
123 107 181
124 107 595
125 107 947
126 107 299
127 107 917
128 107 23
129 107 880
130 107 246
131 106 20
132 106 419
133 106 651
134 106 117
135 106 545
136 106 219
137 106 620
138 105 654
139 105 248
140 105 723
141 104 905
142 103 527
143 103 542
144 103 873
145 103 2
146 102 854
147 102 263
148 102 123
149 102 108
150 101 381
151 101 383
152 101 570
153 101 891
154 100 689
155 100 125
156 100 877
157 100 353
158 99 297
159 99 617
160 99 225
161 99 922
162 98 463
163 98 802
164 98 678
165 98 724
166 98 775
167 97 679
168 97 857
169 97 928
170 97 610
171 96 832
172 96 719
173 96 68
174 96 572
175 96 640
176 95 29
177 95 721
178 94 901
179 94 698
180 94 221
181 94 743
182 93 29
183 93 323
184 93 761
185 93 765
186 92 416
187 92 802
188 92 195
189 92 999
190 91 845
191 91 145
192 91 514
193 90 383
194 90 20
195 89 843
196 89 163
197 88 405
198 88 672
199 87 825
200 87 442
201 87 944
202 87 164
203 87 320
204 87 282
205 86 819
206 86 139
207 86 679
208 86 78
209 86 902
210 85 919
211 85 669
212 85 424
213 85 7
214 85 29
215 85 843
216 84 938
217 84 348
218 84 24
219 83 406
220 83 85
221 83 176
222 83 26
223 82 613
224 82 412
225 82 102
226 82 995
227 82 97
228 82 250
229 82 554
230 81 6
231 81 437
232 81 783
233 81 687
234 79 5
235 79 469
236 79 72
237 79 736
238 79 692
239 78 196
240 78 268
241 78 410
242 78 770
243 77 796
244 77 425
245 77 491
246 77 131
247 76 885
248 76 458
249 76 2
250 76 282
251 76 584
252 76 482
253 76 281
254 75 281
255 75 741
256 74 239
257 74 466
258 74 611
259 74 98
260 74 205
261 74 358
262 74 10
263 73 163
264 73 444
265 73 225
266 72 613
267 72 259
268 72 146
269 71 607
270 71 74
271 71 42
272 70 740
273 70 266
274 70 236
275 69 368
276 69 146
277 69 762
278 69 220
279 69 356
280 68 962
281 68 964
282 68 469
283 67 241
284 67 477
285 67 90
286 67 649
287 66 296
288 66 96
289 66 57
290 66 799
291 66 789
292 65 650
293 65 123
294 65 807
295 65 350
296 64 508
297 64 741
298 63 630
299 63 149
300 63 633
301 63 27
302 62 228
303 62 841
304 61 194
305 61 648
306 61 995
307 61 229
308 60 153
309 60 884
310 60 643
311 60 196
312 60 542
313 60 768
314 59 537
315 59 66
316 59 216
317 59 452
318 58 637
319 58 746
320 58 257
321 58 763
322 58 501
323 58 285
324 57 518
325 57 120
326 57 502
327 57 7
328 56 739
329 56 392
330 56 710
331 55 180
332 55 16
333 55 376
334 55 663
335 55 670
336 54 731
337 54 770
338 53 129
339 53 165
340 53 476
341 53 877
342 53 392
343 53 372
344 53 319
345 52 884
346 52 137
347 51 856
348 51 220
349 51 394
350 51 336
351 51 283
352 51 671
353 51 949
354 51 415
355 50 529
356 50 944
357 50 163
358 50 115
359 50 59
360 49 134
361 49 659
362 49 376
363 49 196
364 48 378
365 48 168
366 47 425
367 47 562
368 47 126
369 47 727
370 47 841
371 46 762
372 46 873
373 46 678
374 46 927
375 46 266
376 46 630
377 45 211
378 45 5
379 45 851
380 44 556
381 44 77
382 44 494
383 44 307
384 44 697
385 44 200
386 44 311
387 43 343
388 43 906
389 43 172
390 43 301
391 43 336
392 42 602
393 41 184
394 41 971
395 41 47
396 41 909
397 40 766
398 40 467
399 40 914
400 40 103
